&CONTROL
  calculation = 'scf'
  forc_conv_thr =   1.0000000000d-04
  outdir = './out/'
  prefix = 'aiida'
  pseudo_dir = './pseudo/'
  tprnfor = .true.
  tstress = .true.
  verbosity = 'high'
/
&SYSTEM
  ecutrho =   320
  ecutwfc =   80
   ibrav = 0
   nat = 2
  ntyp = 1
/
&ELECTRONS
  conv_thr =   1.0000000000d-11
  diagonalization = 'david'
  electron_maxstep = 100
  mixing_beta =   3.0000000000d-01
/
ATOMIC_SPECIES
H      1.00784  C_ONCV_PBE-1.0.upf
ATOMIC_POSITIONS angstrom
H 0.  0.  0.
H 1.0 0.  0.
  K_POINTS gamma
CELL_PARAMETERS angstrom
10. 0. 0. 
0. 10. 0. 
0. 0. 10.
